NAME 
ROWS
 N  OBJ
 G  R0      
 G  R1      
 G  R2      
 G  R3      
 G  R4      
 G  R5      
 G  R6      
 G  R7      
 G  R8      
 G  R9      
 G  R10     
 G  R11     
 G  R12     
 G  R13     
 G  R14     
 G  R15     
 G  R16     
 G  R17     
 G  R18     
 G  R19     
 G  R20     
 G  R21     
 G  R22     
 G  R23     
 G  R24     
 G  R25     
 G  R26     
 G  R27     
 G  R28     
 G  R29     
 G  R30     
 G  R31     
 G  R32     
 G  R33     
 G  R34     
 G  R35     
 G  R36     
 G  R37     
 G  R38     
 G  R39     
 G  R40     
 G  R41     
 G  R42     
 G  R43     
 G  R44     
 G  R45     
 G  R46     
 G  R47     
 G  R48     
 G  R49     
 G  R50     
 G  R51     
 G  R52     
 G  R53     
 G  R54     
 G  R55     
 G  R56     
 G  R57     
 G  R58     
 G  R59     
 G  R60     
 G  R61     
 G  R62     
 G  R63     
 G  R64     
 G  R65     
 G  R66     
 G  R67     
 G  R68     
 G  R69     
 G  R70     
 G  R71     
 G  R72     
 G  R73     
 G  R74     
 G  R75     
 G  R76     
 G  R77     
 G  R78     
 G  R79     
 G  R80     
 G  R81     
 G  R82     
 G  R83     
 G  R84     
 G  R85     
 G  R86     
 G  R87     
 G  R88     
 G  R89     
 G  R90     
 G  R91     
 G  R92     
 G  R93     
 G  R94     
 G  R95     
 G  R96     
 G  R97     
 G  R98     
 G  R99     
 G  R100    
 G  R101    
 G  R102    
 G  R103    
 G  R104    
 G  R105    
 G  R106    
 G  R107    
COLUMNS
    x0        OBJ       1
    x0        R0        1
    x0        R1        1
    x0        R2        1
    x0        R3        1
    x0        R6        1
    x0        R9        1
    x0        R18       1
    x0        R27       1
    x0        R54       1
    x1        OBJ       1
    x1        R0        1
    x1        R1        1
    x1        R2        1
    x1        R4        1
    x1        R7        1
    x1        R10       1
    x1        R19       1
    x1        R28       1
    x1        R55       1
    x2        OBJ       1
    x2        R0        1
    x2        R1        1
    x2        R2        1
    x2        R5        1
    x2        R8        1
    x2        R11       1
    x2        R20       1
    x2        R29       1
    x2        R56       1
    x3        OBJ       1
    x3        R0        1
    x3        R3        1
    x3        R4        1
    x3        R5        1
    x3        R6        1
    x3        R12       1
    x3        R21       1
    x3        R30       1
    x3        R57       1
    x4        OBJ       1
    x4        R1        1
    x4        R3        1
    x4        R4        1
    x4        R5        1
    x4        R7        1
    x4        R13       1
    x4        R22       1
    x4        R31       1
    x4        R58       1
    x5        OBJ       1
    x5        R2        1
    x5        R3        1
    x5        R4        1
    x5        R5        1
    x5        R8        1
    x5        R14       1
    x5        R23       1
    x5        R32       1
    x5        R59       1
    x6        OBJ       1
    x6        R0        1
    x6        R3        1
    x6        R6        1
    x6        R7        1
    x6        R8        1
    x6        R15       1
    x6        R24       1
    x6        R33       1
    x6        R60       1
    x7        OBJ       1
    x7        R1        1
    x7        R4        1
    x7        R6        1
    x7        R7        1
    x7        R8        1
    x7        R16       1
    x7        R25       1
    x7        R34       1
    x7        R61       1
    x8        OBJ       1
    x8        R2        1
    x8        R5        1
    x8        R6        1
    x8        R7        1
    x8        R8        1
    x8        R17       1
    x8        R26       1
    x8        R35       1
    x8        R62       1
    x9        OBJ       1
    x9        R0        1
    x9        R9        1
    x9        R10       1
    x9        R11       1
    x9        R12       1
    x9        R15       1
    x9        R18       1
    x9        R36       1
    x9        R63       1
    x10       OBJ       1
    x10       R1        1
    x10       R9        1
    x10       R10       1
    x10       R11       1
    x10       R13       1
    x10       R16       1
    x10       R19       1
    x10       R37       1
    x10       R64       1
    x11       OBJ       1
    x11       R2        1
    x11       R9        1
    x11       R10       1
    x11       R11       1
    x11       R14       1
    x11       R17       1
    x11       R20       1
    x11       R38       1
    x11       R65       1
    x12       OBJ       1
    x12       R3        1
    x12       R9        1
    x12       R12       1
    x12       R13       1
    x12       R14       1
    x12       R15       1
    x12       R21       1
    x12       R39       1
    x12       R66       1
    x13       OBJ       1
    x13       R4        1
    x13       R10       1
    x13       R12       1
    x13       R13       1
    x13       R14       1
    x13       R16       1
    x13       R22       1
    x13       R40       1
    x13       R67       1
    x14       OBJ       1
    x14       R5        1
    x14       R11       1
    x14       R12       1
    x14       R13       1
    x14       R14       1
    x14       R17       1
    x14       R23       1
    x14       R41       1
    x14       R68       1
    x15       OBJ       1
    x15       R6        1
    x15       R9        1
    x15       R12       1
    x15       R15       1
    x15       R16       1
    x15       R17       1
    x15       R24       1
    x15       R42       1
    x15       R69       1
    x16       OBJ       1
    x16       R7        1
    x16       R10       1
    x16       R13       1
    x16       R15       1
    x16       R16       1
    x16       R17       1
    x16       R25       1
    x16       R43       1
    x16       R70       1
    x17       OBJ       1
    x17       R8        1
    x17       R11       1
    x17       R14       1
    x17       R15       1
    x17       R16       1
    x17       R17       1
    x17       R26       1
    x17       R44       1
    x17       R71       1
    x18       OBJ       1
    x18       R0        1
    x18       R9        1
    x18       R18       1
    x18       R19       1
    x18       R20       1
    x18       R21       1
    x18       R24       1
    x18       R45       1
    x18       R72       1
    x19       OBJ       1
    x19       R1        1
    x19       R10       1
    x19       R18       1
    x19       R19       1
    x19       R20       1
    x19       R22       1
    x19       R25       1
    x19       R46       1
    x19       R73       1
    x20       OBJ       1
    x20       R2        1
    x20       R11       1
    x20       R18       1
    x20       R19       1
    x20       R20       1
    x20       R23       1
    x20       R26       1
    x20       R47       1
    x20       R74       1
    x21       OBJ       1
    x21       R3        1
    x21       R12       1
    x21       R18       1
    x21       R21       1
    x21       R22       1
    x21       R23       1
    x21       R24       1
    x21       R48       1
    x21       R75       1
    x22       OBJ       1
    x22       R4        1
    x22       R13       1
    x22       R19       1
    x22       R21       1
    x22       R22       1
    x22       R23       1
    x22       R25       1
    x22       R49       1
    x22       R76       1
    x23       OBJ       1
    x23       R5        1
    x23       R14       1
    x23       R20       1
    x23       R21       1
    x23       R22       1
    x23       R23       1
    x23       R26       1
    x23       R50       1
    x23       R77       1
    x24       OBJ       1
    x24       R6        1
    x24       R15       1
    x24       R18       1
    x24       R21       1
    x24       R24       1
    x24       R25       1
    x24       R26       1
    x24       R51       1
    x24       R78       1
    x25       OBJ       1
    x25       R7        1
    x25       R16       1
    x25       R19       1
    x25       R22       1
    x25       R24       1
    x25       R25       1
    x25       R26       1
    x25       R52       1
    x25       R79       1
    x26       OBJ       1
    x26       R8        1
    x26       R17       1
    x26       R20       1
    x26       R23       1
    x26       R24       1
    x26       R25       1
    x26       R26       1
    x26       R53       1
    x26       R80       1
    x27       OBJ       1
    x27       R0        1
    x27       R27       1
    x27       R28       1
    x27       R29       1
    x27       R30       1
    x27       R33       1
    x27       R36       1
    x27       R45       1
    x27       R81       1
    x28       OBJ       1
    x28       R1        1
    x28       R27       1
    x28       R28       1
    x28       R29       1
    x28       R31       1
    x28       R34       1
    x28       R37       1
    x28       R46       1
    x28       R82       1
    x29       OBJ       1
    x29       R2        1
    x29       R27       1
    x29       R28       1
    x29       R29       1
    x29       R32       1
    x29       R35       1
    x29       R38       1
    x29       R47       1
    x29       R83       1
    x30       OBJ       1
    x30       R3        1
    x30       R27       1
    x30       R30       1
    x30       R31       1
    x30       R32       1
    x30       R33       1
    x30       R39       1
    x30       R48       1
    x30       R84       1
    x31       OBJ       1
    x31       R4        1
    x31       R28       1
    x31       R30       1
    x31       R31       1
    x31       R32       1
    x31       R34       1
    x31       R40       1
    x31       R49       1
    x31       R85       1
    x32       OBJ       1
    x32       R5        1
    x32       R29       1
    x32       R30       1
    x32       R31       1
    x32       R32       1
    x32       R35       1
    x32       R41       1
    x32       R50       1
    x32       R86       1
    x33       OBJ       1
    x33       R6        1
    x33       R27       1
    x33       R30       1
    x33       R33       1
    x33       R34       1
    x33       R35       1
    x33       R42       1
    x33       R51       1
    x33       R87       1
    x34       OBJ       1
    x34       R7        1
    x34       R28       1
    x34       R31       1
    x34       R33       1
    x34       R34       1
    x34       R35       1
    x34       R43       1
    x34       R52       1
    x34       R88       1
    x35       OBJ       1
    x35       R8        1
    x35       R29       1
    x35       R32       1
    x35       R33       1
    x35       R34       1
    x35       R35       1
    x35       R44       1
    x35       R53       1
    x35       R89       1
    x36       OBJ       1
    x36       R9        1
    x36       R27       1
    x36       R36       1
    x36       R37       1
    x36       R38       1
    x36       R39       1
    x36       R42       1
    x36       R45       1
    x36       R90       1
    x37       OBJ       1
    x37       R10       1
    x37       R28       1
    x37       R36       1
    x37       R37       1
    x37       R38       1
    x37       R40       1
    x37       R43       1
    x37       R46       1
    x37       R91       1
    x38       OBJ       1
    x38       R11       1
    x38       R29       1
    x38       R36       1
    x38       R37       1
    x38       R38       1
    x38       R41       1
    x38       R44       1
    x38       R47       1
    x38       R92       1
    x39       OBJ       1
    x39       R12       1
    x39       R30       1
    x39       R36       1
    x39       R39       1
    x39       R40       1
    x39       R41       1
    x39       R42       1
    x39       R48       1
    x39       R93       1
    x40       OBJ       1
    x40       R13       1
    x40       R31       1
    x40       R37       1
    x40       R39       1
    x40       R40       1
    x40       R41       1
    x40       R43       1
    x40       R49       1
    x40       R94       1
    x41       OBJ       1
    x41       R14       1
    x41       R32       1
    x41       R38       1
    x41       R39       1
    x41       R40       1
    x41       R41       1
    x41       R44       1
    x41       R50       1
    x41       R95       1
    x42       OBJ       1
    x42       R15       1
    x42       R33       1
    x42       R36       1
    x42       R39       1
    x42       R42       1
    x42       R43       1
    x42       R44       1
    x42       R51       1
    x42       R96       1
    x43       OBJ       1
    x43       R16       1
    x43       R34       1
    x43       R37       1
    x43       R40       1
    x43       R42       1
    x43       R43       1
    x43       R44       1
    x43       R52       1
    x43       R97       1
    x44       OBJ       1
    x44       R17       1
    x44       R35       1
    x44       R38       1
    x44       R41       1
    x44       R42       1
    x44       R43       1
    x44       R44       1
    x44       R53       1
    x44       R98       1
    x45       OBJ       1
    x45       R18       1
    x45       R27       1
    x45       R36       1
    x45       R45       1
    x45       R46       1
    x45       R47       1
    x45       R48       1
    x45       R51       1
    x45       R99       1
    x46       OBJ       1
    x46       R19       1
    x46       R28       1
    x46       R37       1
    x46       R45       1
    x46       R46       1
    x46       R47       1
    x46       R49       1
    x46       R52       1
    x46       R100      1
    x47       OBJ       1
    x47       R20       1
    x47       R29       1
    x47       R38       1
    x47       R45       1
    x47       R46       1
    x47       R47       1
    x47       R50       1
    x47       R53       1
    x47       R101      1
    x48       OBJ       1
    x48       R21       1
    x48       R30       1
    x48       R39       1
    x48       R45       1
    x48       R48       1
    x48       R49       1
    x48       R50       1
    x48       R51       1
    x48       R102      1
    x49       OBJ       1
    x49       R22       1
    x49       R31       1
    x49       R40       1
    x49       R46       1
    x49       R48       1
    x49       R49       1
    x49       R50       1
    x49       R52       1
    x49       R103      1
    x50       OBJ       1
    x50       R23       1
    x50       R32       1
    x50       R41       1
    x50       R47       1
    x50       R48       1
    x50       R49       1
    x50       R50       1
    x50       R53       1
    x50       R104      1
    x51       OBJ       1
    x51       R24       1
    x51       R33       1
    x51       R42       1
    x51       R45       1
    x51       R48       1
    x51       R51       1
    x51       R52       1
    x51       R53       1
    x51       R105      1
    x52       OBJ       1
    x52       R25       1
    x52       R34       1
    x52       R43       1
    x52       R46       1
    x52       R49       1
    x52       R51       1
    x52       R52       1
    x52       R53       1
    x52       R106      1
    x53       OBJ       1
    x53       R26       1
    x53       R35       1
    x53       R44       1
    x53       R47       1
    x53       R50       1
    x53       R51       1
    x53       R52       1
    x53       R53       1
    x53       R107      1
    x54       OBJ       1
    x54       R0        1
    x54       R54       1
    x54       R55       1
    x54       R56       1
    x54       R57       1
    x54       R60       1
    x54       R63       1
    x54       R72       1
    x54       R81       1
    x55       OBJ       1
    x55       R1        1
    x55       R54       1
    x55       R55       1
    x55       R56       1
    x55       R58       1
    x55       R61       1
    x55       R64       1
    x55       R73       1
    x55       R82       1
    x56       OBJ       1
    x56       R2        1
    x56       R54       1
    x56       R55       1
    x56       R56       1
    x56       R59       1
    x56       R62       1
    x56       R65       1
    x56       R74       1
    x56       R83       1
    x57       OBJ       1
    x57       R3        1
    x57       R54       1
    x57       R57       1
    x57       R58       1
    x57       R59       1
    x57       R60       1
    x57       R66       1
    x57       R75       1
    x57       R84       1
    x58       OBJ       1
    x58       R4        1
    x58       R55       1
    x58       R57       1
    x58       R58       1
    x58       R59       1
    x58       R61       1
    x58       R67       1
    x58       R76       1
    x58       R85       1
    x59       OBJ       1
    x59       R5        1
    x59       R56       1
    x59       R57       1
    x59       R58       1
    x59       R59       1
    x59       R62       1
    x59       R68       1
    x59       R77       1
    x59       R86       1
    x60       OBJ       1
    x60       R6        1
    x60       R54       1
    x60       R57       1
    x60       R60       1
    x60       R61       1
    x60       R62       1
    x60       R69       1
    x60       R78       1
    x60       R87       1
    x61       OBJ       1
    x61       R7        1
    x61       R55       1
    x61       R58       1
    x61       R60       1
    x61       R61       1
    x61       R62       1
    x61       R70       1
    x61       R79       1
    x61       R88       1
    x62       OBJ       1
    x62       R8        1
    x62       R56       1
    x62       R59       1
    x62       R60       1
    x62       R61       1
    x62       R62       1
    x62       R71       1
    x62       R80       1
    x62       R89       1
    x63       OBJ       1
    x63       R9        1
    x63       R54       1
    x63       R63       1
    x63       R64       1
    x63       R65       1
    x63       R66       1
    x63       R69       1
    x63       R72       1
    x63       R90       1
    x64       OBJ       1
    x64       R10       1
    x64       R55       1
    x64       R63       1
    x64       R64       1
    x64       R65       1
    x64       R67       1
    x64       R70       1
    x64       R73       1
    x64       R91       1
    x65       OBJ       1
    x65       R11       1
    x65       R56       1
    x65       R63       1
    x65       R64       1
    x65       R65       1
    x65       R68       1
    x65       R71       1
    x65       R74       1
    x65       R92       1
    x66       OBJ       1
    x66       R12       1
    x66       R57       1
    x66       R63       1
    x66       R66       1
    x66       R67       1
    x66       R68       1
    x66       R69       1
    x66       R75       1
    x66       R93       1
    x67       OBJ       1
    x67       R13       1
    x67       R58       1
    x67       R64       1
    x67       R66       1
    x67       R67       1
    x67       R68       1
    x67       R70       1
    x67       R76       1
    x67       R94       1
    x68       OBJ       1
    x68       R14       1
    x68       R59       1
    x68       R65       1
    x68       R66       1
    x68       R67       1
    x68       R68       1
    x68       R71       1
    x68       R77       1
    x68       R95       1
    x69       OBJ       1
    x69       R15       1
    x69       R60       1
    x69       R63       1
    x69       R66       1
    x69       R69       1
    x69       R70       1
    x69       R71       1
    x69       R78       1
    x69       R96       1
    x70       OBJ       1
    x70       R16       1
    x70       R61       1
    x70       R64       1
    x70       R67       1
    x70       R69       1
    x70       R70       1
    x70       R71       1
    x70       R79       1
    x70       R97       1
    x71       OBJ       1
    x71       R17       1
    x71       R62       1
    x71       R65       1
    x71       R68       1
    x71       R69       1
    x71       R70       1
    x71       R71       1
    x71       R80       1
    x71       R98       1
    x72       OBJ       1
    x72       R18       1
    x72       R54       1
    x72       R63       1
    x72       R72       1
    x72       R73       1
    x72       R74       1
    x72       R75       1
    x72       R78       1
    x72       R99       1
    x73       OBJ       1
    x73       R19       1
    x73       R55       1
    x73       R64       1
    x73       R72       1
    x73       R73       1
    x73       R74       1
    x73       R76       1
    x73       R79       1
    x73       R100      1
    x74       OBJ       1
    x74       R20       1
    x74       R56       1
    x74       R65       1
    x74       R72       1
    x74       R73       1
    x74       R74       1
    x74       R77       1
    x74       R80       1
    x74       R101      1
    x75       OBJ       1
    x75       R21       1
    x75       R57       1
    x75       R66       1
    x75       R72       1
    x75       R75       1
    x75       R76       1
    x75       R77       1
    x75       R78       1
    x75       R102      1
    x76       OBJ       1
    x76       R22       1
    x76       R58       1
    x76       R67       1
    x76       R73       1
    x76       R75       1
    x76       R76       1
    x76       R77       1
    x76       R79       1
    x76       R103      1
    x77       OBJ       1
    x77       R23       1
    x77       R59       1
    x77       R68       1
    x77       R74       1
    x77       R75       1
    x77       R76       1
    x77       R77       1
    x77       R80       1
    x77       R104      1
    x78       OBJ       1
    x78       R24       1
    x78       R60       1
    x78       R69       1
    x78       R72       1
    x78       R75       1
    x78       R78       1
    x78       R79       1
    x78       R80       1
    x78       R105      1
    x79       OBJ       1
    x79       R25       1
    x79       R61       1
    x79       R70       1
    x79       R73       1
    x79       R76       1
    x79       R78       1
    x79       R79       1
    x79       R80       1
    x79       R106      1
    x80       OBJ       1
    x80       R26       1
    x80       R62       1
    x80       R71       1
    x80       R74       1
    x80       R77       1
    x80       R78       1
    x80       R79       1
    x80       R80       1
    x80       R107      1
    x81       OBJ       1
    x81       R27       1
    x81       R54       1
    x81       R81       1
    x81       R82       1
    x81       R83       1
    x81       R84       1
    x81       R87       1
    x81       R90       1
    x81       R99       1
    x82       OBJ       1
    x82       R28       1
    x82       R55       1
    x82       R81       1
    x82       R82       1
    x82       R83       1
    x82       R85       1
    x82       R88       1
    x82       R91       1
    x82       R100      1
    x83       OBJ       1
    x83       R29       1
    x83       R56       1
    x83       R81       1
    x83       R82       1
    x83       R83       1
    x83       R86       1
    x83       R89       1
    x83       R92       1
    x83       R101      1
    x84       OBJ       1
    x84       R30       1
    x84       R57       1
    x84       R81       1
    x84       R84       1
    x84       R85       1
    x84       R86       1
    x84       R87       1
    x84       R93       1
    x84       R102      1
    x85       OBJ       1
    x85       R31       1
    x85       R58       1
    x85       R82       1
    x85       R84       1
    x85       R85       1
    x85       R86       1
    x85       R88       1
    x85       R94       1
    x85       R103      1
    x86       OBJ       1
    x86       R32       1
    x86       R59       1
    x86       R83       1
    x86       R84       1
    x86       R85       1
    x86       R86       1
    x86       R89       1
    x86       R95       1
    x86       R104      1
    x87       OBJ       1
    x87       R33       1
    x87       R60       1
    x87       R81       1
    x87       R84       1
    x87       R87       1
    x87       R88       1
    x87       R89       1
    x87       R96       1
    x87       R105      1
    x88       OBJ       1
    x88       R34       1
    x88       R61       1
    x88       R82       1
    x88       R85       1
    x88       R87       1
    x88       R88       1
    x88       R89       1
    x88       R97       1
    x88       R106      1
    x89       OBJ       1
    x89       R35       1
    x89       R62       1
    x89       R83       1
    x89       R86       1
    x89       R87       1
    x89       R88       1
    x89       R89       1
    x89       R98       1
    x89       R107      1
    x90       OBJ       1
    x90       R36       1
    x90       R63       1
    x90       R81       1
    x90       R90       1
    x90       R91       1
    x90       R92       1
    x90       R93       1
    x90       R96       1
    x90       R99       1
    x91       OBJ       1
    x91       R37       1
    x91       R64       1
    x91       R82       1
    x91       R90       1
    x91       R91       1
    x91       R92       1
    x91       R94       1
    x91       R97       1
    x91       R100      1
    x92       OBJ       1
    x92       R38       1
    x92       R65       1
    x92       R83       1
    x92       R90       1
    x92       R91       1
    x92       R92       1
    x92       R95       1
    x92       R98       1
    x92       R101      1
    x93       OBJ       1
    x93       R39       1
    x93       R66       1
    x93       R84       1
    x93       R90       1
    x93       R93       1
    x93       R94       1
    x93       R95       1
    x93       R96       1
    x93       R102      1
    x94       OBJ       1
    x94       R40       1
    x94       R67       1
    x94       R85       1
    x94       R91       1
    x94       R93       1
    x94       R94       1
    x94       R95       1
    x94       R97       1
    x94       R103      1
    x95       OBJ       1
    x95       R41       1
    x95       R68       1
    x95       R86       1
    x95       R92       1
    x95       R93       1
    x95       R94       1
    x95       R95       1
    x95       R98       1
    x95       R104      1
    x96       OBJ       1
    x96       R42       1
    x96       R69       1
    x96       R87       1
    x96       R90       1
    x96       R93       1
    x96       R96       1
    x96       R97       1
    x96       R98       1
    x96       R105      1
    x97       OBJ       1
    x97       R43       1
    x97       R70       1
    x97       R88       1
    x97       R91       1
    x97       R94       1
    x97       R96       1
    x97       R97       1
    x97       R98       1
    x97       R106      1
    x98       OBJ       1
    x98       R44       1
    x98       R71       1
    x98       R89       1
    x98       R92       1
    x98       R95       1
    x98       R96       1
    x98       R97       1
    x98       R98       1
    x98       R107      1
    x99       OBJ       1
    x99       R45       1
    x99       R72       1
    x99       R81       1
    x99       R90       1
    x99       R99       1
    x99       R100      1
    x99       R101      1
    x99       R102      1
    x99       R105      1
    x100      OBJ       1
    x100      R46       1
    x100      R73       1
    x100      R82       1
    x100      R91       1
    x100      R99       1
    x100      R100      1
    x100      R101      1
    x100      R103      1
    x100      R106      1
    x101      OBJ       1
    x101      R47       1
    x101      R74       1
    x101      R83       1
    x101      R92       1
    x101      R99       1
    x101      R100      1
    x101      R101      1
    x101      R104      1
    x101      R107      1
    x102      OBJ       1
    x102      R48       1
    x102      R75       1
    x102      R84       1
    x102      R93       1
    x102      R99       1
    x102      R102      1
    x102      R103      1
    x102      R104      1
    x102      R105      1
    x103      OBJ       1
    x103      R49       1
    x103      R76       1
    x103      R85       1
    x103      R94       1
    x103      R100      1
    x103      R102      1
    x103      R103      1
    x103      R104      1
    x103      R106      1
    x104      OBJ       1
    x104      R50       1
    x104      R77       1
    x104      R86       1
    x104      R95       1
    x104      R101      1
    x104      R102      1
    x104      R103      1
    x104      R104      1
    x104      R107      1
    x105      OBJ       1
    x105      R51       1
    x105      R78       1
    x105      R87       1
    x105      R96       1
    x105      R99       1
    x105      R102      1
    x105      R105      1
    x105      R106      1
    x105      R107      1
    x106      OBJ       1
    x106      R52       1
    x106      R79       1
    x106      R88       1
    x106      R97       1
    x106      R100      1
    x106      R103      1
    x106      R105      1
    x106      R106      1
    x106      R107      1
    x107      OBJ       1
    x107      R53       1
    x107      R80       1
    x107      R89       1
    x107      R98       1
    x107      R101      1
    x107      R104      1
    x107      R105      1
    x107      R106      1
    x107      R107      1
RHS
    RHS1      R0        1
    RHS1      R1        1
    RHS1      R2        1
    RHS1      R3        1
    RHS1      R4        1
    RHS1      R5        1
    RHS1      R6        1
    RHS1      R7        1
    RHS1      R8        1
    RHS1      R9        1
    RHS1      R10       1
    RHS1      R11       1
    RHS1      R12       1
    RHS1      R13       1
    RHS1      R14       1
    RHS1      R15       1
    RHS1      R16       1
    RHS1      R17       1
    RHS1      R18       1
    RHS1      R19       1
    RHS1      R20       1
    RHS1      R21       1
    RHS1      R22       1
    RHS1      R23       1
    RHS1      R24       1
    RHS1      R25       1
    RHS1      R26       1
    RHS1      R27       1
    RHS1      R28       1
    RHS1      R29       1
    RHS1      R30       1
    RHS1      R31       1
    RHS1      R32       1
    RHS1      R33       1
    RHS1      R34       1
    RHS1      R35       1
    RHS1      R36       1
    RHS1      R37       1
    RHS1      R38       1
    RHS1      R39       1
    RHS1      R40       1
    RHS1      R41       1
    RHS1      R42       1
    RHS1      R43       1
    RHS1      R44       1
    RHS1      R45       1
    RHS1      R46       1
    RHS1      R47       1
    RHS1      R48       1
    RHS1      R49       1
    RHS1      R50       1
    RHS1      R51       1
    RHS1      R52       1
    RHS1      R53       1
    RHS1      R54       1
    RHS1      R55       1
    RHS1      R56       1
    RHS1      R57       1
    RHS1      R58       1
    RHS1      R59       1
    RHS1      R60       1
    RHS1      R61       1
    RHS1      R62       1
    RHS1      R63       1
    RHS1      R64       1
    RHS1      R65       1
    RHS1      R66       1
    RHS1      R67       1
    RHS1      R68       1
    RHS1      R69       1
    RHS1      R70       1
    RHS1      R71       1
    RHS1      R72       1
    RHS1      R73       1
    RHS1      R74       1
    RHS1      R75       1
    RHS1      R76       1
    RHS1      R77       1
    RHS1      R78       1
    RHS1      R79       1
    RHS1      R80       1
    RHS1      R81       1
    RHS1      R82       1
    RHS1      R83       1
    RHS1      R84       1
    RHS1      R85       1
    RHS1      R86       1
    RHS1      R87       1
    RHS1      R88       1
    RHS1      R89       1
    RHS1      R90       1
    RHS1      R91       1
    RHS1      R92       1
    RHS1      R93       1
    RHS1      R94       1
    RHS1      R95       1
    RHS1      R96       1
    RHS1      R97       1
    RHS1      R98       1
    RHS1      R99       1
    RHS1      R100      1
    RHS1      R101      1
    RHS1      R102      1
    RHS1      R103      1
    RHS1      R104      1
    RHS1      R105      1
    RHS1      R106      1
    RHS1      R107      1
BOUNDS
 UP BND1      x0        1
 UP BND1      x1        1
 UP BND1      x2        1
 UP BND1      x3        1
 UP BND1      x4        1
 UP BND1      x5        1
 UP BND1      x6        1
 UP BND1      x7        1
 UP BND1      x8        1
 UP BND1      x9        1
 UP BND1      x10       1
 UP BND1      x11       1
 UP BND1      x12       1
 UP BND1      x13       1
 UP BND1      x14       1
 UP BND1      x15       1
 UP BND1      x16       1
 UP BND1      x17       1
 UP BND1      x18       1
 UP BND1      x19       1
 UP BND1      x20       1
 UP BND1      x21       1
 UP BND1      x22       1
 UP BND1      x23       1
 UP BND1      x24       1
 UP BND1      x25       1
 UP BND1      x26       1
 UP BND1      x27       1
 UP BND1      x28       1
 UP BND1      x29       1
 UP BND1      x30       1
 UP BND1      x31       1
 UP BND1      x32       1
 UP BND1      x33       1
 UP BND1      x34       1
 UP BND1      x35       1
 UP BND1      x36       1
 UP BND1      x37       1
 UP BND1      x38       1
 UP BND1      x39       1
 UP BND1      x40       1
 UP BND1      x41       1
 UP BND1      x42       1
 UP BND1      x43       1
 UP BND1      x44       1
 UP BND1      x45       1
 UP BND1      x46       1
 UP BND1      x47       1
 UP BND1      x48       1
 UP BND1      x49       1
 UP BND1      x50       1
 UP BND1      x51       1
 UP BND1      x52       1
 UP BND1      x53       1
 UP BND1      x54       1
 UP BND1      x55       1
 UP BND1      x56       1
 UP BND1      x57       1
 UP BND1      x58       1
 UP BND1      x59       1
 UP BND1      x60       1
 UP BND1      x61       1
 UP BND1      x62       1
 UP BND1      x63       1
 UP BND1      x64       1
 UP BND1      x65       1
 UP BND1      x66       1
 UP BND1      x67       1
 UP BND1      x68       1
 UP BND1      x69       1
 UP BND1      x70       1
 UP BND1      x71       1
 UP BND1      x72       1
 UP BND1      x73       1
 UP BND1      x74       1
 UP BND1      x75       1
 UP BND1      x76       1
 UP BND1      x77       1
 UP BND1      x78       1
 UP BND1      x79       1
 UP BND1      x80       1
 UP BND1      x81       1
 UP BND1      x82       1
 UP BND1      x83       1
 UP BND1      x84       1
 UP BND1      x85       1
 UP BND1      x86       1
 UP BND1      x87       1
 UP BND1      x88       1
 UP BND1      x89       1
 UP BND1      x90       1
 UP BND1      x91       1
 UP BND1      x92       1
 UP BND1      x93       1
 UP BND1      x94       1
 UP BND1      x95       1
 UP BND1      x96       1
 UP BND1      x97       1
 UP BND1      x98       1
 UP BND1      x99       1
 UP BND1      x100      1
 UP BND1      x101      1
 UP BND1      x102      1
 UP BND1      x103      1
 UP BND1      x104      1
 UP BND1      x105      1
 UP BND1      x106      1
 UP BND1      x107      1
ENDATA
